solution status: optimal solution found
objective value:                     174253.148142577
d11(0,0)                                            1 	(obj:0)
d11(3,7)                                            1 	(obj:0)
d11(3,8)                                            1 	(obj:0)
d11(3,9)                                            1 	(obj:0)
d11(3,11)                                           1 	(obj:0)
d11(3,13)                                           1 	(obj:0)
d11(3,14)                                           1 	(obj:0)
d11(4,15)                                           1 	(obj:0)
d11(4,16)                                           1 	(obj:0)
d11(4,17)                                           1 	(obj:0)
d11(4,18)                                           1 	(obj:0)
d11(4,19)                                           1 	(obj:0)
d11(4,20)                                           1 	(obj:0)
d11(4,21)                                           1 	(obj:0)
d11(4,22)                                           1 	(obj:0)
d11(4,23)                                           1 	(obj:0)
d11(4,24)                                           1 	(obj:0)
d11(4,25)                                           1 	(obj:0)
d11(4,26)                                           1 	(obj:0)
d11(4,27)                                           1 	(obj:0)
d11(4,28)                                           1 	(obj:0)
d11(4,29)                                           1 	(obj:0)
d11(4,30)                                           1 	(obj:0)
d11(5,33)                                           1 	(obj:0)
d11(5,35)                                           1 	(obj:0)
d11(5,37)                                           1 	(obj:0)
d11(5,43)                                           1 	(obj:0)
d11(5,49)                                           1 	(obj:0)
d11(5,51)                                           1 	(obj:0)
d11(5,55)                                           1 	(obj:0)
d11(5,57)                                           1 	(obj:0)
d11(5,59)                                           1 	(obj:0)
d11(5,61)                                           1 	(obj:0)
d12(1,2)                                            1 	(obj:0)
d12(2,4)                                            1 	(obj:0)
d12(2,6)                                            1 	(obj:0)
d12(5,32)                                           1 	(obj:0)
d12(5,34)                                           1 	(obj:0)
d12(5,36)                                           1 	(obj:0)
d12(5,38)                                           1 	(obj:0)
d12(5,40)                                           1 	(obj:0)
d12(5,42)                                           1 	(obj:0)
d12(5,44)                                           1 	(obj:0)
d12(5,46)                                           1 	(obj:0)
d12(5,48)                                           1 	(obj:0)
d12(5,50)                                           1 	(obj:0)
d12(5,52)                                           1 	(obj:0)
d12(5,54)                                           1 	(obj:0)
d12(5,56)                                           1 	(obj:0)
d12(5,58)                                           1 	(obj:0)
d12(5,60)                                           1 	(obj:0)
d12(5,62)                                           1 	(obj:0)
d21(4,15)                                           1 	(obj:0)
d21(4,16)                                           1 	(obj:0)
d21(4,17)                                           1 	(obj:0)
d21(4,19)                                           1 	(obj:0)
d21(4,23)                                           1 	(obj:0)
d21(5,31)                                           1 	(obj:0)
d21(5,32)                                           1 	(obj:0)
d21(5,33)                                           1 	(obj:0)
d21(5,34)                                           1 	(obj:0)
d21(5,35)                                           1 	(obj:0)
d21(5,36)                                           1 	(obj:0)
d21(5,39)                                           1 	(obj:0)
d21(5,40)                                           1 	(obj:0)
d21(5,41)                                           1 	(obj:0)
d21(5,43)                                           1 	(obj:0)
d21(5,47)                                           1 	(obj:0)
d21(5,48)                                           1 	(obj:0)
d21(5,49)                                           1 	(obj:0)
d21(5,51)                                           1 	(obj:0)
d21(5,55)                                           1 	(obj:0)
y2(5,40)                             1385.48851144895 	(obj:0)
y2(5,42)                             1385.48851144895 	(obj:0)
y2(5,44)                             1385.48851144895 	(obj:0)
y2(5,46)                             1385.48851144895 	(obj:0)
y2(5,48)                             1385.48851144895 	(obj:0)
y2(5,50)                             1385.48851144895 	(obj:0)
y2(5,52)                             1385.48851144895 	(obj:0)
y2(5,54)                             1385.48851144895 	(obj:0)
y2(5,56)                             1385.48851144895 	(obj:0)
y2(5,58)                             1385.48851144895 	(obj:0)
y2(5,60)                             1385.48851144895 	(obj:0)
y2(5,62)                             1385.48851144895 	(obj:0)
STE(1,1)                                        10143 	(obj:0)
STE(0,0)                                        11025 	(obj:0)
STE(1,2)                             11459.2140858765 	(obj:0)
STE(2,3)                                         9261 	(obj:0)
STE(2,4)                             10577.2140858765 	(obj:0)
STE(2,5)                             10577.2140858765 	(obj:0)
STE(2,6)                              11893.428171753 	(obj:0)
STE(3,7)                             6720.75010111115 	(obj:0)
STE(3,8)                                         8379 	(obj:0)
STE(3,9)                             8036.96418698766 	(obj:0)
STE(3,10)                            9695.21408587651 	(obj:0)
STE(3,11)                            8036.96418698766 	(obj:0)
STE(3,12)                            9695.21408587651 	(obj:0)
STE(3,13)                            9353.17827286417 	(obj:0)
STE(3,14)                             11011.428171753 	(obj:0)
STE(4,15)                            3078.00020222234 	(obj:0)
STE(4,16)                            4736.25010111115 	(obj:0)
STE(4,17)                            4736.25010111118 	(obj:0)
STE(4,18)                                      6394.5 	(obj:0)
STE(4,19)                            4394.21428809884 	(obj:0)
STE(4,20)                            6052.46418698766 	(obj:0)
STE(4,21)                            6052.46418698769 	(obj:0)
STE(4,22)                            7710.71408587651 	(obj:0)
STE(4,23)                            4394.21428809884 	(obj:0)
STE(4,24)                            6052.46418698766 	(obj:0)
STE(4,25)                            6052.46418698769 	(obj:0)
STE(4,26)                            7710.71408587651 	(obj:0)
STE(4,27)                            5710.42837397535 	(obj:0)
STE(4,28)                            7368.67827286417 	(obj:0)
STE(4,29)                             7368.6782728642 	(obj:0)
STE(4,30)                            9026.92817175301 	(obj:0)
STE(5,31)                            2196.00020222234 	(obj:0)
STE(5,32)                            3512.21428809884 	(obj:0)
STE(5,33)                            3854.25010111115 	(obj:0)
STE(5,34)                            5170.46418698766 	(obj:0)
STE(5,35)                            3854.25010111118 	(obj:0)
STE(5,36)                            5170.46418698769 	(obj:0)
STE(5,37)                                      5512.5 	(obj:0)
STE(5,38)                            6828.71408587651 	(obj:0)
STE(5,39)                            3512.21428809884 	(obj:0)
STE(5,40)                            4828.42837397535 	(obj:0)
STE(5,41)                            5170.46418698766 	(obj:0)
STE(5,42)                            6486.67827286417 	(obj:0)
STE(5,43)                            5170.46418698769 	(obj:0)
STE(5,44)                             6486.6782728642 	(obj:0)
STE(5,45)                            6828.71408587651 	(obj:0)
STE(5,46)                            8144.92817175301 	(obj:0)
STE(5,47)                            3512.21428809884 	(obj:0)
STE(5,48)                            4828.42837397535 	(obj:0)
STE(5,49)                            5170.46418698766 	(obj:0)
STE(5,50)                            6486.67827286417 	(obj:0)
STE(5,51)                            5170.46418698775 	(obj:0)
STE(5,52)                             6486.6782728642 	(obj:0)
STE(5,53)                            6828.71408587651 	(obj:0)
STE(5,54)                            8144.92817175301 	(obj:0)
STE(5,55)                            4828.42837397535 	(obj:0)
STE(5,56)                            6144.64245985186 	(obj:0)
STE(5,57)                            6486.67827286417 	(obj:0)
STE(5,58)                            7802.89235874067 	(obj:0)
STE(5,59)                             6486.6782728642 	(obj:0)
STE(5,60)                             7802.8923587407 	(obj:0)
STE(5,61)                            8144.92817175301 	(obj:0)
STE(5,62)                            9461.14225762952 	(obj:0)
WB(1)                                    3216.9117036 	(obj:0)
AVE(1)                                   3216.9117036 	(obj:0)
WB(2)                                    3366.1541945 	(obj:0)
AVE(2)                                   3366.1541945 	(obj:0)
WB(3)                                    3515.3966854 	(obj:0)
AVE(3)                                   3515.3966854 	(obj:0)
AVE(4)                               3515.39406545826 	(obj:0)
WB(5)                                3167.15385943327 	(obj:0)
AVE(5)                               3167.15385943327 	(obj:0)
WG(4)                                3515.39406545826 	(obj:10)
BG(1)                                2673.40993877551 	(obj:10)
BG(2)                                2673.40993877551 	(obj:10)
BG(3)                                4196.29249897959 	(obj:10)
BG(4)                                1693.39843352131 	(obj:10)
BG(5)                                2673.40993877551 	(obj:10)
y1(3,7)                              1492.42490899996 	(obj:0)
y1(3,9)                              1492.42490899996 	(obj:0)
y1(3,11)                             1492.42490899996 	(obj:0)
y1(3,13)                             1492.42490899996 	(obj:0)
y1(4,15)                             2484.67490899994 	(obj:0)
y1(4,16)                                       992.25 	(obj:0)
y1(4,17)                             2484.67490899994 	(obj:0)
y1(4,18)                                       992.25 	(obj:0)
y1(4,19)                             2484.67490899994 	(obj:0)
y1(4,20)                                       992.25 	(obj:0)
y1(4,21)                             2484.67490899994 	(obj:0)
y1(4,22)                                       992.25 	(obj:0)
y1(4,23)                             2484.67490899994 	(obj:0)
y1(4,24)                                       992.25 	(obj:0)
y1(4,25)                             2484.67490899994 	(obj:0)
y1(4,26)                                       992.25 	(obj:0)
y1(4,27)                             2484.67490899994 	(obj:0)
y1(4,28)                                       992.25 	(obj:0)
y1(4,29)                             2484.67490899994 	(obj:0)
y1(4,30)                                       992.25 	(obj:0)
y2(1,2)                              1385.48851144895 	(obj:0)
y2(2,4)                              1385.48851144895 	(obj:0)
y2(2,6)                              1385.48851144895 	(obj:0)
y2(5,32)                             1385.48851144895 	(obj:0)
y2(5,34)                             1385.48851144895 	(obj:0)
y2(5,36)                             1385.48851144895 	(obj:0)
y2(5,38)                             1385.48851144895 	(obj:0)
